3 
4 
5  07 24 39 54 
6  09 24 39 51 
7  06 21 36 51 
8  06 21 36 51 
9  06 21 36 51 
10  06 21 36 51 
11  06 21 36 51 
12  06 21 36 51 
13  06 21 36 51 
14  06 21 36 50 
15  05 20 35 50 
16  05 20 35 50 
17  05 20 35 50 
18  05 20 35 51 
19  06 21 36 53 
20  08 23 38 53 
21  08 23 38 53 
22  08 23 38 54 
23  13 30 
0 
